c --- [ banner ] -------------------------------------------------------------
c 
c CaDiCaL Radically Simplified CDCL SAT Solver
c Copyright (c) 2016-2021 A. Biere, M. Fleury, N. Froleyks
c 
c Version 1.5.2 9c38a080b32c28d805e8e6ca21849856b0cda605
c g++ (Ubuntu 7.5.0-3ubuntu1~18.04) 7.5.0 -Wall -Wextra -O3 -DNDEBUG
c Wed Feb 16 23:15:36 EST 2022 Linux fac-vanhoeve01 5.4.0-99-generic x86_64
c 
c --- [ limit ] --------------------------------------------------------------
c 
c setting time limit to 600 seconds real time (due to '-t 600')
c setting conflict limit to 1000000000 conflicts (due to '1000000000')
c 
c --- [ parsing input ] ------------------------------------------------------
c 
c reading DIMACS file from 'ddfwcnfs/r1000.5.col_234.cnf'
c opening file to read 'ddfwcnfs/r1000.5.col_234.cnf'
c found 'p cnf 234000 35431408' header
c parsed 35431408 clauses in 25.42 seconds process time
c closing file 'ddfwcnfs/r1000.5.col_234.cnf'
c after reading 604318885 bytes 576.3 MB
c 
c --- [ options ] ------------------------------------------------------------
c 
c all options are set to their default value
c 
c --- [ solving ] ------------------------------------------------------------
c 
c time measured in process time since initialization
c 
c  seconds    reductions  redundant   irredundant
c          MB     restarts       trail         variables
c            level   conflicts       glue            remaining
c 
c * 25.42 2880  0 0   0    0    0  0% 0 35300715 178751 76%
c { 25.49 2883  0 0   0    0    0  0% 0 35300715 178751 76%
c - 33.23 2888 227 1   0  300  218 72% 20 35241337 178751 76%
c } 34.02 2888 116 1   7 1000  747 48% 17 35241337 178751 76%
c [ 34.02 2888  0 1   7 1000  747  0% 0 35241337 178751 76%
c O 34.04 2888 77 1   7 1002  749 34% 2 35241337 178751 76%
c - 56.13 3695 151 2   8 2432 1737 44% 36 35241337 178751 76%
c ] 56.57 3695 167 2   8 3001 2197 46% 47 35241337 178751 76%
c { 56.57 3695 116 2   8 3001 2197 48% 17 35241337 178751 76%
c F 81.03 3697 116 2   8 3003 2199  2% 17 35241337 178751 76%
c p 122.64 3704 115 2 322 5000 3661 16% 27 35241337 178751 76%
c - 151.43 3704 109 3 461 5625 3022 17% 29 35241337 178751 76%
c # 152.28 3704 109 3 530 6004 3348 17% 30 35241337 178751 76%
c } 153.96 3704 104 3 747 7001 4089 17% 32 35241337 178751 76%
c [ 153.96 3704 167 3 747 7001 4089 60% 47 35241337 178751 76%
c - 173.89 3705 152 4 749 9883 4415 39% 55 35241337 178751 76%
c I 173.98 3705 153 4 749 10005 4525 39% 55 35241337 178751 76%
c ] 175.95 3705 278 4 752 15001 8589 26% 45 35241337 178751 76%
c { 175.95 3705 104 4 752 15001 8589 17% 32 35241337 178751 76%
c p 212.70 3705 104 4 753 15001 8599 17% 32 35241337 178751 76%
c 
c  seconds      reductions   redundant    irredundant
c           MB      restarts        trail          variables
c              level    conflicts       glue             remaining
c 
c B 220.86 3705 105 4 753 15009 8606 17% 32 35241337 178751 76%
c - 238.31 3705 106 5 770 15204 5652 17% 32 35241337 178751 76%
c s 253.21 3707 106 5 779 15252 5602 17% 33 35241337 178751 76%
c w 302.67 3708 106 5 779 15252 5600 17% 33 35241337 178751 76%
c e 340.44 4041 106 5 779 15252 5592 17% 33 17779453 119109 51%
c s 341.38 4041 106 5 779 15252 5565 17% 33 17779453 119109 51%
c ^ 347.59 4041 106 5 779 15252 5565 17% 33 17779453 119109 51%
c W 381.91 3508 92 5 1493 21010 9489 22% 34 17779453 119109 51%
c - 390.73 3509 91 6 1561 21589 6371 23% 34 17779453 119109 51%
c F 393.71 3509 91 6 1971 28011 11179 22% 33 17779453 119109 51%
c - 403.09 3509 90 7 2025 28414 7075 22% 33 17779453 119109 51%
c p 419.22 3509 87 7 2314 30001 7968 21% 33 17779453 119109 51%
c } 423.41 3509 84 7 2386 31002 8394 21% 33 17779453 119109 51%
c [ 423.41 3509 278 7 2386 31002 8394 38% 45 17779453 119109 51%
c B 425.02 3509 197 7 2389 36013 10919 30% 43 17779453 119109 51%
c - 434.23 3508 205 8 2389 36215 6016 30% 43 17779453 119109 51%
c s 439.80 3508 254 8 2393 44142 12152 35% 61 17779453 119109 51%
c w 463.99 3508 254 8 2393 44142 12148 35% 61 17779453 119109 51%
c s 474.03 3508 254 8 2393 44142 12136 35% 61 17779453 119109 51%
c ^ 479.45 3508 254 8 2393 44142 12136 35% 61 17779453 119109 51%
c 
c  seconds      reductions    redundant    irredundant
c           MB      restarts         trail          variables
c              level     conflicts       glue             remaining
c 
c - 489.85 3514 256 9 2393 44991 8917 36% 64 17779453 119109 51%
c W 516.80 3514 257 9 2393 45017 8942 36% 65 17779453 119109 51%
c p 537.14 3514 270 9 2394 50004 13061 40% 72 17779453 119109 51%
c - 553.24 3513 248 10 2395 54741 10020 39% 76 17779453 119109 51%
c O 553.36 3513 247 10 2395 55019 10205 39% 76 17779453 119109 51%
c ] 557.91 3513 222 10 2401 63006 16203 39% 75 17779453 119109 51%
c { 557.91 3513 84 10 2401 63006 16203 21% 33 17779453 119109 51%
c - 568.42 3511 85 11 2479 65465 11313 22% 33 17779453 119109 51%
c B 568.57 3511 85 11 2479 66021 11800 22% 33 17779453 119109 51%
c p 591.98 3511 88 11 3357 75004 17968 22% 32 17779453 119109 51%
c - 608.19 3510 88 12 3587 77166 11784 22% 32 17779453 119109 51%
c } 608.19 3510 88 12 3587 77166 11784 22% 32 17779453 119109 51%
c ? 608.19 3510 88 12 3587 77166 11784 22% 32 17779453 119109 51%
c 
c --- [ result ] -------------------------------------------------------------
c 
c UNKNOWN
c 
c --- [ run-time profiling ] -------------------------------------------------
c 
c process time taken by individual solving procedures
c (percentage relative to process time for solving)
c 
c       304.33   52.22% search
c       278.43   47.78% simplify
c       163.82   28.11% unstable
c        99.53   17.08% stable
c        75.70   12.99% ternary
c        56.78    9.74% vivify
c        45.42    7.79% elim
c        40.91    7.02% walk
c        25.42    4.36% parse
c        16.68    2.86% subsume
c         6.67    1.14% probe
c         0.07    0.01% lucky
c   =================================
c       582.76   95.82% solve
c 
c last line shows process time for solving
c (percentage relative to total process time)
c 
c --- [ statistics ] ---------------------------------------------------------
c 
c chronological:             20159        26.12 %  of conflicts
c conflicts:                 77166       132.41    per second
c decisions:                264254       453.45    per second
c eliminated:                59642        25.49 %  of all variables
c fixed:                     55249        23.61 %  of all variables
c learned:                   76110        98.63 %  per conflict
c learned_lits:           15401709       100.00 %  learned literals
c minimized:                     0         0.00 %  learned literals
c shrunken:                7249886        47.07 %  learned literals
c minishrunken:             436307         2.83 %  learned literals
c propagations:          124238453         0.21 M  per second
c reduced:                   43933        56.93 %  per conflict
c rephased:                     11      7015.09    interval
c restarts:                   3587        21.51    interval
c stabilizing:                   3        54.43 %  of conflicts
c subsumed:                  20381         0.03 %  of all clauses
c strengthened:               1370         0.00 %  of all clauses
c vivified:                     13         0.00 %  of all clauses
c walked:                        2     38583.00    interval
c weakened:               17462469         2.00    average size
c 
c seconds are measured in process time for solving
c 
c --- [ resources ] ----------------------------------------------------------
c 
c total process time since initialization:       608.19    seconds
c total real time since initialization:          608.28    seconds
c maximum resident set size of process:         4782.40    MB
c 
c --- [ shutting down ] ------------------------------------------------------
c 
c exit 0
